# Solution for model JobShopModel
# Objective value = 47572
y[0,0,1] 1
y[0,1,0] 1
y[0,2,2] 1
y[0,3,3] 1
y[0,4,4] 1
y[1,0,3] 1
y[1,1,1] 1
y[1,2,2] 1
y[1,3,0] 1
y[1,4,4] 1
y[2,0,0] 1
y[2,1,2] 1
y[2,2,3] 1
y[2,3,1] 1
y[2,4,4] 1
y[3,0,0] 1
y[3,1,3] 1
y[3,2,2] 1
y[3,3,4] 1
y[4,0,0] 1
y[4,1,3] 1
y[4,2,0] 1
y[4,3,2] 1
y[4,4,4] 1
x[0,0,0,0] 0
x[0,0,0,1] 0
x[0,0,0,2] 0
x[0,0,0,3] 0
x[0,0,0,4] 0
x[0,0,1,0] 0
x[0,0,1,1] 1
x[0,0,1,2] 0
x[0,0,1,3] 0
x[0,0,1,4] 0
x[0,0,2,0] 0
x[0,0,2,1] 0
x[0,0,2,2] 0
x[0,0,2,3] 1
x[0,0,2,4] 0
x[0,0,3,0] 0
x[0,0,3,1] 0
x[0,0,3,2] 0
x[0,0,3,3] 0
x[0,0,4,0] 0
x[0,0,4,1] 0
x[0,0,4,2] 0
x[0,0,4,3] 0
x[0,0,4,4] 0
x[0,1,0,0] 0
x[0,1,0,1] 0
x[0,1,0,2] 0
x[0,1,0,3] 0
x[0,1,0,4] 0
x[0,1,1,0] 0
x[0,1,1,1] 0
x[0,1,1,2] 0
x[0,1,1,3] 1
x[0,1,1,4] 0
x[0,1,2,0] 0
x[0,1,2,1] 0
x[0,1,2,2] 0
x[0,1,2,3] 0
x[0,1,2,4] 0
x[0,1,3,0] 0
x[0,1,3,1] 0
x[0,1,3,2] 0
x[0,1,3,3] 0
x[0,1,4,0] 1
x[0,1,4,1] 0
x[0,1,4,2] 1
x[0,1,4,3] 0
x[0,1,4,4] 0
x[0,2,0,0] 0
x[0,2,0,1] 0
x[0,2,0,2] 0
x[0,2,0,3] 0
x[0,2,0,4] 0
x[0,2,1,0] 0
x[0,2,1,1] 0
x[0,2,1,2] 1
x[0,2,1,3] 0
x[0,2,1,4] 0
x[0,2,2,0] 0
x[0,2,2,1] 0
x[0,2,2,2] 0
x[0,2,2,3] 0
x[0,2,2,4] 0
x[0,2,3,0] 0
x[0,2,3,1] 0
x[0,2,3,2] 0
x[0,2,3,3] 0
x[0,2,4,0] 0
x[0,2,4,1] 0
x[0,2,4,2] 0
x[0,2,4,3] 1
x[0,2,4,4] 0
x[0,3,0,0] 0
x[0,3,0,1] 0
x[0,3,0,2] 0
x[0,3,0,3] 0
x[0,3,0,4] 0
x[0,3,1,0] 0
x[0,3,1,1] 0
x[0,3,1,2] 0
x[0,3,1,3] 0
x[0,3,1,4] 0
x[0,3,2,0] 0
x[0,3,2,1] 0
x[0,3,2,2] 0
x[0,3,2,3] 0
x[0,3,2,4] 0
x[0,3,3,0] 0
x[0,3,3,1] 0
x[0,3,3,2] 0
x[0,3,3,3] 0
x[0,3,4,0] 0
x[0,3,4,1] 0
x[0,3,4,2] 0
x[0,3,4,3] 0
x[0,3,4,4] 0
x[0,4,0,0] 0
x[0,4,0,1] 0
x[0,4,0,2] 0
x[0,4,0,3] 0
x[0,4,0,4] 0
x[0,4,1,0] 0
x[0,4,1,1] 0
x[0,4,1,2] 0
x[0,4,1,3] 0
x[0,4,1,4] 1
x[0,4,2,0] 0
x[0,4,2,1] 0
x[0,4,2,2] 0
x[0,4,2,3] 0
x[0,4,2,4] 0
x[0,4,3,0] 0
x[0,4,3,1] 0
x[0,4,3,2] 0
x[0,4,3,3] 0
x[0,4,4,0] 0
x[0,4,4,1] 0
x[0,4,4,2] 0
x[0,4,4,3] 0
x[0,4,4,4] 0
x[1,0,0,0] 0
x[1,0,0,1] 0
x[1,0,0,2] 0
x[1,0,0,3] 0
x[1,0,0,4] 0
x[1,0,1,0] 0
x[1,0,1,1] 0
x[1,0,1,2] 0
x[1,0,1,3] 0
x[1,0,1,4] 0
x[1,0,2,0] 0
x[1,0,2,1] 0
x[1,0,2,2] 0
x[1,0,2,3] 0
x[1,0,2,4] 0
x[1,0,3,0] 0
x[1,0,3,1] 0
x[1,0,3,2] 0
x[1,0,3,3] 0
x[1,0,4,0] 0
x[1,0,4,1] 0
x[1,0,4,2] 0
x[1,0,4,3] 0
x[1,0,4,4] 0
x[1,1,0,0] 0
x[1,1,0,1] 0
x[1,1,0,2] 0
x[1,1,0,3] 0
x[1,1,0,4] 0
x[1,1,1,0] 0
x[1,1,1,1] 0
x[1,1,1,2] 0
x[1,1,1,3] 0
x[1,1,1,4] 0
x[1,1,2,0] 0
x[1,1,2,1] 0
x[1,1,2,2] 0
x[1,1,2,3] 0
x[1,1,2,4] 0
x[1,1,3,0] 0
x[1,1,3,1] 0
x[1,1,3,2] 0
x[1,1,3,3] 0
x[1,1,4,0] 0
x[1,1,4,1] 0
x[1,1,4,2] 0
x[1,1,4,3] 0
x[1,1,4,4] 0
x[1,2,0,0] 0
x[1,2,0,1] 0
x[1,2,0,2] 0
x[1,2,0,3] 0
x[1,2,0,4] 0
x[1,2,1,0] 0
x[1,2,1,1] 0
x[1,2,1,2] 0
x[1,2,1,3] 0
x[1,2,1,4] 0
x[1,2,2,0] 0
x[1,2,2,1] 0
x[1,2,2,2] 0
x[1,2,2,3] 0
x[1,2,2,4] 0
x[1,2,3,0] 0
x[1,2,3,1] 0
x[1,2,3,2] 0
x[1,2,3,3] 0
x[1,2,4,0] 0
x[1,2,4,1] 0
x[1,2,4,2] 0
x[1,2,4,3] 0
x[1,2,4,4] 0
x[1,3,0,0] 0
x[1,3,0,1] 0
x[1,3,0,2] 0
x[1,3,0,3] 0
x[1,3,0,4] 0
x[1,3,1,0] 0
x[1,3,1,1] 0
x[1,3,1,2] 0
x[1,3,1,3] 0
x[1,3,1,4] 0
x[1,3,2,0] 0
x[1,3,2,1] 0
x[1,3,2,2] 0
x[1,3,2,3] 0
x[1,3,2,4] 0
x[1,3,3,0] 0
x[1,3,3,1] 0
x[1,3,3,2] 0
x[1,3,3,3] 0
x[1,3,4,0] 0
x[1,3,4,1] 0
x[1,3,4,2] 0
x[1,3,4,3] 0
x[1,3,4,4] 0
x[1,4,0,0] 0
x[1,4,0,1] 0
x[1,4,0,2] 0
x[1,4,0,3] 0
x[1,4,0,4] 0
x[1,4,1,0] 0
x[1,4,1,1] 0
x[1,4,1,2] 0
x[1,4,1,3] 0
x[1,4,1,4] 0
x[1,4,2,0] 0
x[1,4,2,1] 0
x[1,4,2,2] 0
x[1,4,2,3] 0
x[1,4,2,4] 0
x[1,4,3,0] 0
x[1,4,3,1] 0
x[1,4,3,2] 0
x[1,4,3,3] 0
x[1,4,4,0] 0
x[1,4,4,1] 0
x[1,4,4,2] 0
x[1,4,4,3] 0
x[1,4,4,4] 0
x[2,0,0,0] 0
x[2,0,0,1] 0
x[2,0,0,2] 0
x[2,0,0,3] 0
x[2,0,0,4] 0
x[2,0,1,0] 0
x[2,0,1,1] 0
x[2,0,1,2] 0
x[2,0,1,3] 0
x[2,0,1,4] 0
x[2,0,2,0] 0
x[2,0,2,1] 0
x[2,0,2,2] 0
x[2,0,2,3] 0
x[2,0,2,4] 0
x[2,0,3,0] 0
x[2,0,3,1] 0
x[2,0,3,2] 0
x[2,0,3,3] 0
x[2,0,4,0] 1
x[2,0,4,1] 0
x[2,0,4,2] 1
x[2,0,4,3] 0
x[2,0,4,4] 0
x[2,1,0,0] 0
x[2,1,0,1] 0
x[2,1,0,2] 0
x[2,1,0,3] 0
x[2,1,0,4] 0
x[2,1,1,0] 0
x[2,1,1,1] 0
x[2,1,1,2] 0
x[2,1,1,3] 0
x[2,1,1,4] 0
x[2,1,2,0] 0
x[2,1,2,1] 0
x[2,1,2,2] 0
x[2,1,2,3] 0
x[2,1,2,4] 0
x[2,1,3,0] 0
x[2,1,3,1] 0
x[2,1,3,2] 1
x[2,1,3,3] 0
x[2,1,4,0] 0
x[2,1,4,1] 0
x[2,1,4,2] 0
x[2,1,4,3] 1
x[2,1,4,4] 0
x[2,2,0,0] 0
x[2,2,0,1] 0
x[2,2,0,2] 0
x[2,2,0,3] 0
x[2,2,0,4] 0
x[2,2,1,0] 0
x[2,2,1,1] 0
x[2,2,1,2] 0
x[2,2,1,3] 0
x[2,2,1,4] 0
x[2,2,2,0] 0
x[2,2,2,1] 0
x[2,2,2,2] 0
x[2,2,2,3] 0
x[2,2,2,4] 0
x[2,2,3,0] 0
x[2,2,3,1] 0
x[2,2,3,2] 0
x[2,2,3,3] 0
x[2,2,4,0] 0
x[2,2,4,1] 1
x[2,2,4,2] 0
x[2,2,4,3] 0
x[2,2,4,4] 0
x[2,3,0,0] 0
x[2,3,0,1] 0
x[2,3,0,2] 0
x[2,3,0,3] 0
x[2,3,0,4] 0
x[2,3,1,0] 0
x[2,3,1,1] 0
x[2,3,1,2] 0
x[2,3,1,3] 0
x[2,3,1,4] 0
x[2,3,2,0] 0
x[2,3,2,1] 0
x[2,3,2,2] 0
x[2,3,2,3] 0
x[2,3,2,4] 0
x[2,3,3,0] 0
x[2,3,3,1] 0
x[2,3,3,2] 0
x[2,3,3,3] 0
x[2,3,4,0] 0
x[2,3,4,1] 0
x[2,3,4,2] 0
x[2,3,4,3] 0
x[2,3,4,4] 0
x[2,4,0,0] 0
x[2,4,0,1] 0
x[2,4,0,2] 0
x[2,4,0,3] 0
x[2,4,0,4] 0
x[2,4,1,0] 0
x[2,4,1,1] 0
x[2,4,1,2] 0
x[2,4,1,3] 0
x[2,4,1,4] 0
x[2,4,2,0] 0
x[2,4,2,1] 0
x[2,4,2,2] 0
x[2,4,2,3] 0
x[2,4,2,4] 0
x[2,4,3,0] 0
x[2,4,3,1] 0
x[2,4,3,2] 0
x[2,4,3,3] 0
x[2,4,4,0] 0
x[2,4,4,1] 0
x[2,4,4,2] 0
x[2,4,4,3] 0
x[2,4,4,4] 1
x[3,0,0,0] 0
x[3,0,0,1] 0
x[3,0,0,2] 0
x[3,0,0,3] 0
x[3,0,0,4] 0
x[3,0,1,0] 0
x[3,0,1,1] 0
x[3,0,1,2] 0
x[3,0,1,3] 0
x[3,0,1,4] 0
x[3,0,2,0] 0
x[3,0,2,1] 0
x[3,0,2,2] 0
x[3,0,2,3] 0
x[3,0,2,4] 0
x[3,0,3,0] 0
x[3,0,3,1] 0
x[3,0,3,2] 0
x[3,0,3,3] 0
x[3,0,4,0] 1
x[3,0,4,1] 0
x[3,0,4,2] 1
x[3,0,4,3] 0
x[3,0,4,4] 0
x[3,1,0,0] 0
x[3,1,0,1] 0
x[3,1,0,2] 0
x[3,1,0,3] 0
x[3,1,0,4] 0
x[3,1,1,0] 0
x[3,1,1,1] 0
x[3,1,1,2] 0
x[3,1,1,3] 0
x[3,1,1,4] 0
x[3,1,2,0] 0
x[3,1,2,1] 0
x[3,1,2,2] 0
x[3,1,2,3] 0
x[3,1,2,4] 0
x[3,1,3,0] 0
x[3,1,3,1] 0
x[3,1,3,2] 0
x[3,1,3,3] 0
x[3,1,4,0] 0
x[3,1,4,1] 1
x[3,1,4,2] 0
x[3,1,4,3] 0
x[3,1,4,4] 0
x[3,2,0,0] 0
x[3,2,0,1] 0
x[3,2,0,2] 0
x[3,2,0,3] 0
x[3,2,0,4] 0
x[3,2,1,0] 0
x[3,2,1,1] 0
x[3,2,1,2] 0
x[3,2,1,3] 0
x[3,2,1,4] 0
x[3,2,2,0] 0
x[3,2,2,1] 0
x[3,2,2,2] 0
x[3,2,2,3] 0
x[3,2,2,4] 0
x[3,2,3,0] 0
x[3,2,3,1] 0
x[3,2,3,2] 0
x[3,2,3,3] 0
x[3,2,4,0] 0
x[3,2,4,1] 0
x[3,2,4,2] 0
x[3,2,4,3] 1
x[3,2,4,4] 0
x[3,3,0,0] 0
x[3,3,0,1] 0
x[3,3,0,2] 0
x[3,3,0,3] 0
x[3,3,0,4] 0
x[3,3,1,0] 0
x[3,3,1,1] 0
x[3,3,1,2] 0
x[3,3,1,3] 0
x[3,3,1,4] 0
x[3,3,2,0] 0
x[3,3,2,1] 0
x[3,3,2,2] 0
x[3,3,2,3] 0
x[3,3,2,4] 0
x[3,3,3,0] 0
x[3,3,3,1] 0
x[3,3,3,2] 0
x[3,3,3,3] 0
x[3,3,4,0] 0
x[3,3,4,1] 0
x[3,3,4,2] 0
x[3,3,4,3] 0
x[3,3,4,4] 1
x[4,0,0,0] 0
x[4,0,0,1] 0
x[4,0,0,2] 0
x[4,0,0,3] 0
x[4,0,0,4] 0
x[4,0,1,0] 0
x[4,0,1,1] 0
x[4,0,1,2] 0
x[4,0,1,3] 0
x[4,0,1,4] 0
x[4,0,2,0] 0
x[4,0,2,1] 0
x[4,0,2,2] 0
x[4,0,2,3] 0
x[4,0,2,4] 0
x[4,0,3,0] 0
x[4,0,3,1] 0
x[4,0,3,2] 0
x[4,0,3,3] 0
x[4,0,4,0] 0
x[4,0,4,1] 0
x[4,0,4,2] 1
x[4,0,4,3] 0
x[4,0,4,4] 0
x[4,1,0,0] 0
x[4,1,0,1] 0
x[4,1,0,2] 0
x[4,1,0,3] 0
x[4,1,0,4] 0
x[4,1,1,0] 0
x[4,1,1,1] 0
x[4,1,1,2] 0
x[4,1,1,3] 0
x[4,1,1,4] 0
x[4,1,2,0] 0
x[4,1,2,1] 0
x[4,1,2,2] 0
x[4,1,2,3] 0
x[4,1,2,4] 0
x[4,1,3,0] 0
x[4,1,3,1] 0
x[4,1,3,2] 0
x[4,1,3,3] 0
x[4,1,4,0] 0
x[4,1,4,1] 0
x[4,1,4,2] 0
x[4,1,4,3] 0
x[4,1,4,4] 0
x[4,2,0,0] 0
x[4,2,0,1] 0
x[4,2,0,2] 0
x[4,2,0,3] 0
x[4,2,0,4] 0
x[4,2,1,0] 0
x[4,2,1,1] 0
x[4,2,1,2] 0
x[4,2,1,3] 0
x[4,2,1,4] 0
x[4,2,2,0] 0
x[4,2,2,1] 0
x[4,2,2,2] 0
x[4,2,2,3] 0
x[4,2,2,4] 0
x[4,2,3,0] 0
x[4,2,3,1] 0
x[4,2,3,2] 0
x[4,2,3,3] 0
x[4,2,4,0] 0
x[4,2,4,1] 0
x[4,2,4,2] 0
x[4,2,4,3] 0
x[4,2,4,4] 0
x[4,3,0,0] 0
x[4,3,0,1] 0
x[4,3,0,2] 0
x[4,3,0,3] 0
x[4,3,0,4] 0
x[4,3,1,0] 0
x[4,3,1,1] 0
x[4,3,1,2] 0
x[4,3,1,3] 0
x[4,3,1,4] 0
x[4,3,2,0] 0
x[4,3,2,1] 0
x[4,3,2,2] 0
x[4,3,2,3] 0
x[4,3,2,4] 0
x[4,3,3,0] 0
x[4,3,3,1] 0
x[4,3,3,2] 0
x[4,3,3,3] 0
x[4,3,4,0] 0
x[4,3,4,1] 0
x[4,3,4,2] 0
x[4,3,4,3] 0
x[4,3,4,4] 0
x[4,4,0,0] 0
x[4,4,0,1] 0
x[4,4,0,2] 0
x[4,4,0,3] 0
x[4,4,0,4] 0
x[4,4,1,0] 0
x[4,4,1,1] 0
x[4,4,1,2] 0
x[4,4,1,3] 0
x[4,4,1,4] 0
x[4,4,2,0] 0
x[4,4,2,1] 0
x[4,4,2,2] 0
x[4,4,2,3] 0
x[4,4,2,4] 0
x[4,4,3,0] 0
x[4,4,3,1] 0
x[4,4,3,2] 0
x[4,4,3,3] 0
x[4,4,4,0] 0
x[4,4,4,1] 0
x[4,4,4,2] 0
x[4,4,4,3] 0
x[4,4,4,4] 0
s[0,0,1] 1.3678999999999996e+04
s[0,1,0] 1.2238999999999996e+04
s[0,2,2] 8.3987624184276447e+03
s[0,3,3] 3.4989999999999986e+03
s[0,4,4] 2.0589999999999991e+03
s[1,0,3] 6.4389999999999982e+03
s[1,1,1] 4.9502702879585549e+03
s[1,2,2] 3.4614687719754461e+03
s[1,3,0] 1.9671252680714874e+03
s[1,4,4] 4.8000000000000017e+02
s[2,0,0] 16678
s[2,1,2] 1.5237999999999998e+04
s[2,2,3] 1.0917999999999998e+04
s[2,3,1] 8.0202036237143220e+03
s[2,4,4] 6.5645594459814465e+03
s[3,0,0] 18277
s[3,1,3] 1.5396999999999998e+04
s[3,2,2] 1.1813219392301648e+04
s[3,3,4] 9.7201541363961678e+03
s[4,0,0] 1.0738999999999996e+04
s[4,1,3] 9.2989999999999964e+03
s[4,2,0] 7.8589999999999973e+03
s[4,3,2] 6419
s[4,4,4] 3539
Z_FO 47572
C625 1
C626 1
C627 1
C628 1
C629 1
